452,91
681,136
635,110
718,169
850,575
1020,652
948,542
622,397
635,264
681,-74
504,59
704,554
536,511
487,547
606,880
282,535
368,507
471,406
664,382
723,448
874,672
885,806
817,673
570,748
560,318
385,360
171,406
293,688
558,575
875,265
857,164
1045,142
999,88
